************************************************************************
file with basedata            : j9020_.bas
initial value random generator: 88651486
************************************************************************
projects                      :  1
jobs (incl. supersource/sink ):  92
horizon                       :  514
RESOURCES
  - renewable                 :  4   R
  - nonrenewable              :  0   N
  - doubly constrained        :  0   D
************************************************************************
PROJECT INFORMATION:
pronr.  #jobs rel.date duedate tardcost  MPM-Time
    1     90      0       89       57       89
************************************************************************
PRECEDENCE RELATIONS:
jobnr.    #modes  #successors   successors
   1        1          3           2   3   4
   2        1          3           7   9  10
   3        1          2           8  27
   4        1          3           5   6  28
   5        1          2          53  67
   6        1          3          23  32  42
   7        1          3          14  24  33
   8        1          1          76
   9        1          3          11  13  21
  10        1          3          12  20  56
  11        1          3          19  58  63
  12        1          2          22  68
  13        1          3          15  17  25
  14        1          2          18  29
  15        1          3          16  30  70
  16        1          3          23  35  75
  17        1          1          73
  18        1          3          34  35  40
  19        1          1          46
  20        1          2          45  47
  21        1          2          26  59
  22        1          2          30  36
  23        1          2          43  65
  24        1          1          64
  25        1          3          38  56  57
  26        1          1          30
  27        1          3          37  41  52
  28        1          2          44  74
  29        1          2          31  55
  30        1          2          66  91
  31        1          3          39  53  62
  32        1          1          50
  33        1          1          84
  34        1          1          54
  35        1          3          38  57  58
  36        1          1          45
  37        1          1          43
  38        1          1          48
  39        1          3          51  61  67
  40        1          2          58  89
  41        1          2          49  79
  42        1          1          60
  43        1          2          45  73
  44        1          2          47  87
  45        1          1          50
  46        1          2          54  70
  47        1          1          85
  48        1          1          60
  49        1          2          51  89
  50        1          2          72  87
  51        1          1          74
  52        1          2          59  69
  53        1          2          56  73
  54        1          1          74
  55        1          3          65  69  71
  56        1          2          64  81
  57        1          3          60  68  83
  58        1          2          72  86
  59        1          3          62  67  68
  60        1          1          89
  61        1          1          78
  62        1          1          63
  63        1          3          65  71  77
  64        1          2          66  84
  65        1          1          79
  66        1          3          79  80  82
  67        1          2          70  84
  68        1          1          87
  69        1          1          78
  70        1          2          83  85
  71        1          3          75  76  86
  72        1          3          76  77  78
  73        1          1          88
  74        1          2          75  91
  75        1          1          81
  76        1          1          80
  77        1          2          80  82
  78        1          1          81
  79        1          1          86
  80        1          1          85
  81        1          1          82
  82        1          1          83
  83        1          1          88
  84        1          1          88
  85        1          1          90
  86        1          1          90
  87        1          1          91
  88        1          1          90
  89        1          1          92
  90        1          1          92
  91        1          1          92
  92        1          0        
************************************************************************
REQUESTS/DURATIONS:
jobnr. mode duration  R 1  R 2  R 3  R 4
------------------------------------------------------------------------
  1      1     0       0    0    0    0
  2      1    10       0    2    0    0
  3      1     2       5    0    0    0
  4      1     3       0    1    0    0
  5      1    10       0    0    9    0
  6      1     3       0    0    4    0
  7      1     7       0    0    0    1
  8      1     7       0    0    7    0
  9      1     5       0    0    7    0
 10      1     9       0    0    7    0
 11      1     2       0    0    0    6
 12      1     8       4    0    0    0
 13      1     2       0    0    8    0
 14      1     9       0    0    0    4
 15      1     7       0    5    0    0
 16      1    10       0    0    1    0
 17      1     7       6    0    0    0
 18      1     1       9    0    0    0
 19      1    10       7    0    0    0
 20      1     3       0    0    0    4
 21      1     6       0    0    0    1
 22      1     7       0    0    0    3
 23      1     7       4    0    0    0
 24      1     9       0    0    5    0
 25      1    10       4    0    0    0
 26      1     8       0    0    2    0
 27      1     8       0    8    0    0
 28      1     7       0    3    0    0
 29      1     4       0    0    0   10
 30      1     4       0    0    0    4
 31      1     2       0    2    0    0
 32      1    10       0    0    0    1
 33      1     2       0    6    0    0
 34      1     3       0    0    0    1
 35      1     2       0    0    9    0
 36      1     6       0    3    0    0
 37      1     6       0    2    0    0
 38      1     6       0    0    1    0
 39      1     9       0    5    0    0
 40      1     5       2    0    0    0
 41      1     5       3    0    0    0
 42      1     7       0    0    0    7
 43      1     2       0    0    0    6
 44      1     6       0    2    0    0
 45      1     5       0    0    3    0
 46      1     5      10    0    0    0
 47      1     7       0    0    2    0
 48      1    10       0    0    0    1
 49      1     1       0    0    0    5
 50      1    10       0    0    0   10
 51      1     5       9    0    0    0
 52      1     5       9    0    0    0
 53      1     3       0    0    7    0
 54      1     5       6    0    0    0
 55      1     4       0    0    8    0
 56      1    10       0    1    0    0
 57      1    10       0    0    9    0
 58      1     6       0    1    0    0
 59      1     4       0    8    0    0
 60      1     5       0    5    0    0
 61      1     7       0    0    9    0
 62      1     4       0    4    0    0
 63      1     8       0    0    0    1
 64      1     5       0    0    7    0
 65      1     4       0    0    0    4
 66      1     3      10    0    0    0
 67      1    10       4    0    0    0
 68      1     8       0    0    9    0
 69      1     3       9    0    0    0
 70      1     2       0    3    0    0
 71      1     9       0    2    0    0
 72      1     5       0    0    3    0
 73      1     8       0    2    0    0
 74      1     5       0    0    8    0
 75      1     6       0    0    5    0
 76      1     9       0   10    0    0
 77      1    10       9    0    0    0
 78      1     5       0    4    0    0
 79      1     4       0    8    0    0
 80      1     3       0    6    0    0
 81      1     6       0    0    1    0
 82      1     6       8    0    0    0
 83      1     4       0    1    0    0
 84      1     2       0    0    0    7
 85      1     7       0    2    0    0
 86      1     8       0    0    0    4
 87      1     3       0    0    1    0
 88      1     4       0    0    4    0
 89      1     2       0    9    0    0
 90      1     1      10    0    0    0
 91      1     2       1    0    0    0
 92      1     0       0    0    0    0
************************************************************************
RESOURCEAVAILABILITIES:
  R 1  R 2  R 3  R 4
   24   14   36   18
************************************************************************
Job	#risk	Type	VL	mu	sigma	Type	VL	mu	sigma
3	1	5	0.05	6.25	0.3125
4	1	3	0.2	3.75	0.75
13	1	8	0.05	10	0.5
15	2	3	0.2	3.75	0.75	4	0.05	5	0.25
18	2	4	0.1	5	0.5	8	0.1	10	1
19	2	1	0.05	1.25	0.0625	3	0.1	3.75	0.375
22	1	8	0.05	10	0.5
27	1	6	0.05	7.5	0.375
28	2	4	0.05	5	0.25	6	0.1	7.5	0.75
31	1	5	0.05	6.25	0.3125
33	2	3	0.05	3.75	0.1875	4	0.1	5	0.5
35	1	1	0.1	1.25	0.125
36	2	6	0.2	7.5	1.5	8	0.05	10	0.5
37	2	2	0.2	2.5	0.5	4	0.1	5	0.5
42	1	5	0.1	6.25	0.625
43	1	5	0.2	6.25	1.25
48	1	7	0.1	8.75	0.875
51	2	2	0.05	2.5	0.125	7	0.2	8.75	1.75
52	1	5	0.2	6.25	1.25
59	2	5	0.1	6.25	0.625	8	0.2	10	2
61	1	2	0.1	2.5	0.25
63	2	7	0.1	8.75	0.875	8	0.1	10	1
73	2	1	0.2	1.25	0.25	3	0.1	3.75	0.375
80	1	5	0.2	6.25	1.25
81	1	6	0.2	7.5	1.5
83	1	3	0.1	3.75	0.375
87	2	4	0.2	5	1	7	0.1	8.75	0.875
